
Gurobi 10.0.1 (linux64) logging started Tue 18 Jul 2023 12:58:11 AM CDT

Set parameter LogFile to value "/home/dlcole3/graph_abstraction/plasmoexamples/SHP_serial/SHP_reserve_requirements/gurobi_logs/logfile30.log"
Set parameter NodefileStart to value 0.0005
Set parameter TimeLimit to value 36000
Gurobi Optimizer version 10.0.1 build v10.0.1rc0 (linux64)

CPU model: Intel(R) Xeon(R) CPU E5-2698 v4 @ 2.20GHz, instruction set [SSE2|AVX|AVX2]
Thread count: 40 physical cores, 80 logical processors, using up to 8 threads


Warning: excessive time spent in model updates.
Consider calling update less frequently.

Optimize a model with 1103654 rows, 641709 columns and 4636589 nonzeros
Model fingerprint: 0x21934745
Variable types: 599982 continuous, 41727 integer (41727 binary)
Coefficient statistics:
  Matrix range     [5e-02, 2e+04]
  Objective range  [2e-01, 8e+04]
  Bounds range     [5e-02, 2e+04]
  RHS range        [1e-21, 7e+03]
Presolve removed 268351 rows and 115616 columns (presolve time = 5s) ...
Presolve removed 275940 rows and 116489 columns (presolve time = 10s) ...
Presolve removed 278029 rows and 119512 columns (presolve time = 15s) ...
Presolve removed 286816 rows and 124079 columns (presolve time = 20s) ...
Presolve removed 290695 rows and 124261 columns (presolve time = 25s) ...
Presolve removed 291404 rows and 124986 columns (presolve time = 30s) ...
Presolve removed 291444 rows and 125036 columns (presolve time = 35s) ...
Presolve removed 291744 rows and 125056 columns (presolve time = 40s) ...
Sparsify removed 200923 nonzeros (5%)
Presolve removed 291744 rows and 182967 columns (presolve time = 45s) ...
Presolve removed 291744 rows and 123087 columns
Presolve time: 45.47s
Presolved: 811910 rows, 518622 columns, 3973375 nonzeros
Variable types: 484911 continuous, 33711 integer (33645 binary)

Deterministic concurrent LP optimizer: primal simplex, dual simplex, and barrier
Showing barrier log only...

Root barrier log...

Elapsed ordering time = 17s
Elapsed ordering time = 20s
Elapsed ordering time = 25s
Elapsed ordering time = 30s
Elapsed ordering time = 31s
Elapsed ordering time = 35s
Elapsed ordering time = 43s
Elapsed ordering time = 45s
Elapsed ordering time = 50s
Elapsed ordering time = 56s
Elapsed ordering time = 60s
Elapsed ordering time = 65s
Ordering time: 67.21s

Barrier statistics:
 Dense cols : 206
 AA' NZ     : 2.401e+07
 Factor NZ  : 3.908e+08 (roughly 4.0 GB of memory)
 Factor Ops : 2.059e+12 (roughly 16 seconds per iteration)
 Threads    : 5

                  Objective                Residual
Iter       Primal          Dual         Primal    Dual     Compl     Time
   0  -2.20217835e+11 -1.80566369e+13  1.23e+04 8.91e+03  1.15e+08   136s
   1  -1.49666915e+11 -1.26943497e+13  8.83e+03 2.29e+06  7.15e+07   148s
   2  -7.41211843e+10 -8.05121936e+12  4.56e+03 8.20e+04  3.46e+07   165s
   3  -2.05949594e+10 -2.96264894e+12  1.47e+03 2.43e+00  1.02e+07   182s
   4  -2.40026949e+09 -1.32290788e+12  4.31e+02 9.05e-01  2.97e+06   201s
   5   3.99580357e+09 -5.91809612e+11  1.03e+02 3.10e-01  7.86e+05   219s
   6   5.23107781e+09 -2.30052191e+11  3.19e+01 1.36e-01  2.30e+05   239s
   7   4.48084735e+09 -7.91800087e+10  8.48e+00 5.80e-02  6.38e+04   259s
   8   2.08882196e+09 -2.98048761e+10  2.42e+00 2.19e-02  2.10e+04   277s
   9   5.09792158e+08 -4.67349911e+09  5.03e-01 2.23e-03  3.22e+03   298s
  10   8.54168143e+07 -4.35115893e+08  7.08e-04 7.23e-04  3.03e+02   319s
  11   6.60955272e+07 -7.08671064e+07  1.07e-04 6.20e-05  7.98e+01   340s
  12   5.48429238e+07  3.27737117e+06  2.94e-05 5.44e-04  3.00e+01   359s
  13   4.96752494e+07  2.54056161e+07  1.32e-05 2.15e-04  1.41e+01   383s
  14   4.63764639e+07  3.63231994e+07  5.96e-06 5.29e-05  5.86e+00   402s
  15   4.50953067e+07  3.92269371e+07  3.84e-06 3.04e-05  3.42e+00   423s
  16   4.39220030e+07  4.14969570e+07  1.98e-06 9.28e-06  1.41e+00   441s
  17   4.33071357e+07  4.18468868e+07  1.03e-06 6.57e-06  8.51e-01   459s
  18   4.30684143e+07  4.20043695e+07  6.86e-07 5.15e-06  6.20e-01   477s
  19   4.29383118e+07  4.22093535e+07  5.05e-07 3.35e-06  4.25e-01   495s
  20   4.28061428e+07  4.24107880e+07  3.35e-07 1.45e-06  2.30e-01   512s
  21   4.27191930e+07  4.24493800e+07  2.12e-07 1.34e-06  1.57e-01   528s
  22   4.26976088e+07  4.24691135e+07  1.81e-07 1.10e-06  1.33e-01   544s
  23   4.26365173e+07  4.24948225e+07  1.53e-07 7.91e-07  8.25e-02   563s
  24   4.25974311e+07  4.25225910e+07  2.42e-06 4.66e-07  4.36e-02   584s
  25   4.25916506e+07  4.25344880e+07  2.89e-06 3.29e-07  3.33e-02   610s
  26   4.25846877e+07  4.25388517e+07  2.26e-06 2.79e-07  2.67e-02   631s
  27   4.25808979e+07  4.25524642e+07  1.98e-06 1.27e-07  1.66e-02   653s
  28   4.25752847e+07  4.25570791e+07  1.49e-06 7.22e-08  1.06e-02   676s
  29   4.25715564e+07  4.25591642e+07  1.10e-06 4.92e-08  7.22e-03   700s
  30   4.25680326e+07  4.25605917e+07  8.85e-07 3.33e-08  4.33e-03   724s
  31   4.25667626e+07  4.25613166e+07  8.12e-07 2.47e-08  3.17e-03   746s
  32   4.25660505e+07  4.25624316e+07  6.71e-07 1.19e-08  2.11e-03   765s
  33   4.25651225e+07  4.25628456e+07  4.23e-07 7.42e-09  1.33e-03   784s
  34   4.25642615e+07  4.25634659e+07  1.69e-07 7.61e-09  4.64e-04   803s
  35   4.25637419e+07  4.25635363e+07  6.57e-07 8.71e-09  1.20e-04   827s
  36   4.25635953e+07  4.25635861e+07  3.81e-08 2.74e-08  5.37e-06   845s
  37   4.25635935e+07  4.25635897e+07  2.41e-08 2.08e-08  2.20e-06   866s
  38   4.25635923e+07  4.25635901e+07  4.71e-06 1.63e-08  1.26e-06   884s

Barrier solved model in 38 iterations and 884.41 seconds (850.55 work units)
Optimal objective 4.25635923e+07


Root crossover log...

  320182 variables added to crossover basis                      885s

  332086 DPushes remaining with DInf 1.8467829e-03               886s
  131891 DPushes remaining with DInf 3.8638605e-06               891s
   87811 DPushes remaining with DInf 1.0460093e-06               896s
   57881 DPushes remaining with DInf 1.0460093e-06               901s
   41552 DPushes remaining with DInf 0.0000000e+00               906s
   31056 DPushes remaining with DInf 0.0000000e+00               911s
   26873 DPushes remaining with DInf 0.0000000e+00               916s
   23083 DPushes remaining with DInf 0.0000000e+00               921s
   18838 DPushes remaining with DInf 0.0000000e+00               925s
   10959 DPushes remaining with DInf 0.0000000e+00               931s
    5364 DPushes remaining with DInf 0.0000000e+00               936s
    1043 DPushes remaining with DInf 0.0000000e+00               941s
       0 DPushes remaining with DInf 0.0000000e+00               943s

   56840 PPushes remaining with PInf 2.6877721e-03               943s
   12471 PPushes remaining with PInf 4.5788186e-03               945s
    3393 PPushes remaining with PInf 4.6045915e-03               951s
       0 PPushes remaining with PInf 2.1546624e-04               952s

  Push phase complete: Pinf 2.1546624e-04, Dinf 7.5234565e+02    953s


Root simplex log...

Iteration    Objective       Primal Inf.    Dual Inf.      Time
  216394    4.2563590e+07   0.000000e+00   7.523457e+02    954s
  216417    4.2563590e+07   0.000000e+00   0.000000e+00    957s
  216417    4.2563590e+07   0.000000e+00   0.000000e+00    959s
Waiting for other threads to finish...        1026s
Concurrent spin time: 69.65s

Solved with barrier

Root relaxation: objective 4.256359e+07, 216417 iterations, 979.24 seconds (876.58 work units)

    Nodes    |    Current Node    |     Objective Bounds      |     Work
 Expl Unexpl |  Obj  Depth IntInf | Incumbent    BestBd   Gap | It/Node Time

     0     0 4.2564e+07    0   46          - 4.2564e+07      -     - 1035s
H    0     0                    4.304486e+07 4.2564e+07  1.12%     - 1057s

Explored 1 nodes (216479 simplex iterations) in 1057.38 seconds (949.73 work units)
Thread count was 8 (of 80 available processors)

Solution count 2: 4.30449e+07 4.30449e+07 

Optimal solution found (tolerance 1.00e-01)
Best objective 4.304485987399e+07, best bound 4.256359036105e+07, gap 1.1181%

User-callback calls 103316, time in user-callback 0.28 sec
